p cnf 36 64
-1 -2 -3 -6 0
-2 -3 -4 -12 0
-2 -4 -6 -12 0
-3 -4 -6 -12 0
-2 -3 -6 0
1 13 0
-1 -13 0
2 14 0
-2 -14 0
3 15 0
-3 -15 0
4 16 0
-4 -16 0
5 17 0
-5 -17 0
6 18 0
-6 -18 0
7 19 0
-7 -19 0
8 20 0
-8 -20 0
9 21 0
-9 -21 0
10 22 0
-10 -22 0
11 23 0
-11 -23 0
12 24 0
-12 -24 0
-13 25 0
-14 26 0
-25 26 0
-14 -25 0
-15 27 0
-26 27 0
-15 -26 0
-16 28 0
-27 28 0
-16 -27 0
-17 29 0
-28 29 0
-17 -28 0
-18 30 0
-29 30 0
-18 -29 0
-19 31 0
-30 31 0
-19 -30 0
-20 32 0
-31 32 0
-20 -31 0
-21 33 0
-32 33 0
-21 -32 0
-22 34 0
-33 34 0
-22 -33 0
-23 35 0
-34 35 0
-23 -34 0
-24 36 0
-35 36 0
-24 -35 0
-36 0
